53 28 89 4 5 6 99 71 57 1 51 12 58 62 38 45 64 11 44 20 93 22 43 47 83 27 2 29 40 31 98 34 69 18 36 37 96 39 30 52 42 73 7 82 41 92 100 49 56 90 3 10 32 55 59 9 78 33 60 67 54 68 48 15 66 74 14 50 91 19 72 63 17 77 61 79 95 81 16 26 84 75 86 8 88 65 35 85 13 94 21 24 46 97 23 80 87 